1111100 AB
339 361 383 394 405 417 430 443 455 467 479 491 504 516 528 545 563 581 600 618 636 655 673 691 710 728 746 765 779 793 807 820 834 848 862 875 889 903 923 943 963 983 1003 1023 1043 1063 1075 1085 1095 1105 1115 1125 1135 1145 1155 1166 1177 1192 1202 1214 1226 1251 1263 1275 1286 1297 1319 1341 1363 1385 1409 1433 17 41 63 84
1111100 BA
316 338 360 371 382 394 404 415 422 429 447 462 475 487 499 511 523 536 547 558 573 591 609 628 646 664 683 701 719 738 756 765 774 793 807 821 835 848 862 876 890 903 919 934 954 974 994 1014 1034 1054 1074 1094 1106 1116 1126 1136 1145 1151 1160 1169 1179 1190 1201 1226 1250 1273 1296 1318 1340 1362 1384 1406 1430 14 38 62
